p cnf 94 269
11 16 0 
-11 -16 0 
-11 -77 70 0 
-11 -77 24 0 
-48 -78 73 0 
-48 -78 28 0 
-53 -79 76 0 
-53 -79 32 0 
-16 -80 70 0 
-16 -80 33 0 
-59 -81 73 0 
-59 -81 37 0 
-64 -82 76 0 
-64 -82 41 0 
-11 -9 -83 24 0 
-11 -9 -83 48 0 
-11 -9 -83 -48 0 
-48 -42 -84 28 0 
-48 -42 -84 53 0 
-48 -42 -84 -53 0 
-53 -43 -85 32 0 
-53 -43 -85 58 0 
-53 -43 -85 -58 0 
-11 -86 33 0 
-11 -86 59 0 
-11 -86 -48 0 
-48 -87 37 0 
-48 -87 64 0 
-48 -87 -53 0 
-53 -88 41 0 
-53 -88 69 0 
-53 -88 -58 0 
-16 -89 24 0 
-16 -89 48 0 
-16 -89 -59 0 
-59 -90 28 0 
-59 -90 53 0 
-59 -90 -64 0 
-64 -91 32 0 
-64 -91 58 0 
-64 -91 -69 0 
-16 -10 -92 33 0 
-16 -10 -92 59 0 
-16 -10 -92 -59 0 
-59 -45 -93 37 0 
-59 -45 -93 64 0 
-59 -45 -93 -64 0 
-64 -46 -94 41 0 
-64 -46 -94 69 0 
-64 -46 -94 -69 0 
-1 24 0 
-11 -77 2 0 
-2 11 0 
-2 77 0 
-11 -9 -83 3 0 
-3 11 0 
-3 9 0 
-3 83 0 
-16 -89 4 0 
-4 16 0 
-4 89 0 
2 3 4 1 -24 0 
-24 28 0 
-48 -78 25 0 
-25 48 0 
-25 78 0 
-48 -42 -84 26 0 
-26 48 0 
-26 42 0 
-26 84 0 
-59 -90 27 0 
-27 59 0 
-27 90 0 
25 26 27 24 -28 0 
-28 32 0 
-53 -79 29 0 
-29 53 0 
-29 79 0 
-53 -43 -85 30 0 
-30 53 0 
-30 43 0 
-30 85 0 
-64 -91 31 0 
-31 64 0 
-31 91 0 
29 30 31 28 -32 0 
-5 33 0 
-16 -80 6 0 
-6 16 0 
-6 80 0 
-11 -86 7 0 
-7 11 0 
-7 86 0 
-16 -10 -92 8 0 
-8 16 0 
-8 10 0 
-8 92 0 
6 7 8 5 -33 0 
-33 37 0 
-59 -81 34 0 
-34 59 0 
-34 81 0 
-48 -87 35 0 
-35 48 0 
-35 87 0 
-59 -45 -93 36 0 
-36 59 0 
-36 45 0 
-36 93 0 
34 35 36 33 -37 0 
-37 41 0 
-64 -82 38 0 
-38 64 0 
-38 82 0 
-53 -88 39 0 
-39 53 0 
-39 88 0 
-64 -46 -94 40 0 
-40 64 0 
-40 46 0 
-40 94 0 
38 39 40 37 -41 0 
-9 42 0 
9 -42 0 
-42 43 0 
42 -43 0 
-43 44 0 
43 -44 0 
-10 45 0 
10 -45 0 
-45 46 0 
45 -46 0 
-46 47 0 
46 -47 0 
-11 -9 -83 12 0 
-12 11 0 
-12 9 0 
-12 83 0 
-11 -86 13 0 
-13 11 0 
-13 86 0 
12 13 -11 48 0 
-11 -9 -83 14 0 
-14 11 0 
-14 9 0 
-14 83 0 
-16 -89 15 0 
-15 16 0 
-15 89 0 
14 15 11 -48 0 
-48 -42 -84 49 0 
-49 48 0 
-49 42 0 
-49 84 0 
-48 -87 50 0 
-50 48 0 
-50 87 0 
49 50 -48 53 0 
-48 -42 -84 51 0 
-51 48 0 
-51 42 0 
-51 84 0 
-59 -90 52 0 
-52 59 0 
-52 90 0 
51 52 48 -53 0 
-53 -43 -85 54 0 
-54 53 0 
-54 43 0 
-54 85 0 
-53 -88 55 0 
-55 53 0 
-55 88 0 
54 55 -53 58 0 
-53 -43 -85 56 0 
-56 53 0 
-56 43 0 
-56 85 0 
-64 -91 57 0 
-57 64 0 
-57 91 0 
56 57 53 -58 0 
-16 -89 17 0 
-17 16 0 
-17 89 0 
-16 -10 -92 18 0 
-18 16 0 
-18 10 0 
-18 92 0 
17 18 -16 59 0 
-11 -86 19 0 
-19 11 0 
-19 86 0 
-16 -10 -92 20 0 
-20 16 0 
-20 10 0 
-20 92 0 
19 20 16 -59 0 
-59 -90 60 0 
-60 59 0 
-60 90 0 
-59 -45 -93 61 0 
-61 59 0 
-61 45 0 
-61 93 0 
60 61 -59 64 0 
-48 -87 62 0 
-62 48 0 
-62 87 0 
-59 -45 -93 63 0 
-63 59 0 
-63 45 0 
-63 93 0 
62 63 59 -64 0 
-64 -91 65 0 
-65 64 0 
-65 91 0 
-64 -46 -94 66 0 
-66 64 0 
-66 46 0 
-66 94 0 
65 66 -64 69 0 
-53 -88 67 0 
-67 53 0 
-67 88 0 
-64 -46 -94 68 0 
-68 64 0 
-68 46 0 
-68 94 0 
67 68 64 -69 0 
-21 70 0 
-11 -77 22 0 
-22 11 0 
-22 77 0 
-16 -80 23 0 
-23 16 0 
-23 80 0 
22 23 21 -70 0 
-70 73 0 
-48 -78 71 0 
-71 48 0 
-71 78 0 
-59 -81 72 0 
-72 59 0 
-72 81 0 
71 72 70 -73 0 
-73 76 0 
-53 -79 74 0 
-74 53 0 
-74 79 0 
-64 -82 75 0 
-75 64 0 
-75 82 0 
74 75 73 -76 0 
-83 -86 0 
-83 -89 0 
-84 -87 0 
-84 -90 0 
-85 -88 0 
-85 -91 0 
-86 -89 0 
-86 -92 0 
-87 -90 0 
-87 -93 0 
-88 -91 0 
-88 -94 0 
-89 -92 0 
-90 -93 0 
-91 -94 0 
